3124
2875
3666
648
1650
1047
3014
2809
169
2512
3787
2399
3457
285
649
357
837
143
1652
2946
2804
937
3487
2969
1941
1106
3450
1800
2332
2364
1167
1702
1331
3231
3732
3082
2898
2219
1742
1086
3196
899
1486
425
1962
3535
2708
3822
3445
1564
553
3638
791
3201
1299
1518
1394
3669
1563
2863
365
2037
1664
2719
2910
2625
3500
334
241
2489
1315
1486
1950
1834
2397
3248
2396
772
755
2017
3196
2693
2583
1475
2354
534
255
1621
3487
2081
3267
2269
619
1666
969
3530
874
1457
2673
3583
